data/CVRPLIB/Vrp-Set-XML100/instances/XML100_2331_01.vrp
NAME : XML100_2331_01
COMMENT : Generated by Queiroga, Sadykov, Uchoa, and Vidal (2021)
TYPE : CVRP
DIMENSION : 101
EDGE_WEIGHT_TYPE : EUC_2D
CAPACITY : 30
NODE_COORD_SECTION
1    500  500 
2    209  733 
3    957  309 
4    347  269 
5    753  35  
6    272  244 
7    489  626 
8    6    716 
9    258  453 
10   590  945 
11   578  841 
12   19   526 
13   40   531 
14   733  457 
15   398  118 
16   545  888 
17   51   678 
18   132  177 
19   386  148 
20   100  154 
21   889  993 
22   218  845 
23   128  162 
24   414  134 
25   441  336 
26   577  951 
27   350  52  
28   563  975 
29   254  997 
30   50   107 
31   405  116 
32   861  744 
33   237  846 
34   196  484 
35   72   170 
36   350  196 
37   300  151 
38   407  178 
39   139  877 
40   370  39  
41   118  98  
42   563  147 
43   586  462 
44   566  865 
45   397  139 
46   151  115 
47   178  41  
48   19   167 
49   171  170 
50   63   113 
51   461  780 
52   290  850 
53   434  152 
54   460  979 
55   464  892 
56   891  874 
57   566  936 
58   138  122 
59   240  135 
60   629  494 
61   431  87  
62   400  189 
63   574  232 
64   97   129 
65   373  244 
66   360  106 
67   401  831 
68   632  845 
69   409  225 
70   392  157 
71   972  641 
72   164  403 
73   405  187 
74   636  399 
75   528  418 
76   57   186 
77   451  809 
78   527  871 
79   446  927 
80   146  958 
81   60   28  
82   114  113 
83   104  105 
84   100  121 
85   421  894 
86   410  375 
87   662  400 
88   525  102 
89   463  871 
90   20   176 
91   85   280 
92   397  225 
93   692  33  
94   548  772 
95   483  852 
96   371  120 
97   295  687 
98   920  817 
99   298  180 
100  4    372 
101  601  887 
DEMAND_SECTION
1    0   
2    9   
3    5   
4    6   
5    7   
6    8   
7    6   
8    8   
9    5   
10   8   
11   9   
12   5   
13   10  
14   6   
15   10  
16   7   
17   10  
18   9   
19   6   
20   7   
21   6   
22   6   
23   6   
24   9   
25   9   
26   6   
27   7   
28   5   
29   5   
30   8   
31   9   
32   7   
33   7   
34   10  
35   9   
36   7   
37   8   
38   10  
39   7   
40   5   
41   7   
42   6   
43   6   
44   5   
45   9   
46   6   
47   9   
48   9   
49   7   
50   5   
51   7   
52   8   
53   10  
54   9   
55   9   
56   8   
57   5   
58   6   
59   8   
60   10  
61   5   
62   5   
63   8   
64   5   
65   10  
66   10  
67   10  
68   6   
69   6   
70   8   
71   9   
72   5   
73   7   
74   10  
75   6   
76   5   
77   6   
78   6   
79   6   
80   8   
81   9   
82   6   
83   8   
84   5   
85   5   
86   6   
87   7   
88   5   
89   6   
90   9   
91   9   
92   10  
93   7   
94   5   
95   9   
96   9   
97   9   
98   10  
99   5   
100  5   
101  9   
DEPOT_SECTION
1
-1
EOF
