data/CVRPLIB/Vrp-Set-XML100/solutions/XML100_2331_01.sol
Route #1: 47 89 90
Route #2: 42 86 73 74
Route #3: 62 41 92 4
Route #4: 97 55 20 67
Route #5: 96 21 32 51
Route #6: 10 100 15 43
Route #7: 76 88 54 94
Route #8: 95 26 39 30
Route #9: 9 25 27 56 77
Route #10: 31 70 2 13
Route #11: 22 63 83 82 81
Route #12: 7 16 33
Route #13: 8 71 99 11 12
Route #14: 5 58 36 98
Route #15: 1 38 79 28
Route #16: 87 60 14 65
Route #17: 72 69 18 44
Route #18: 37 23 52
Route #19: 24 91 64
Route #20: 53 78 84 66
Route #21: 17 19 34 75
Route #22: 68 61 35 3 85
Route #23: 49 29 80 40
Route #24: 6 50 93 59
Route #25: 46 45 57 48
Cost 24973
